Route #1: 394 377 212 758 323 655 313
Route #2: 673 254 703 449 144 625 729 51 796
Route #3: 866 854 68 516 927 610 247 110
Route #4: 214 819 281 800 634 632 53 82 173 61
Route #5: 14 650 13 572 965 277 971 172 101 845
Route #6: 202 372 108 894 941 686 921 613 105
Route #7: 486 201 695 589 537 297 218 267 320 706 541
Route #8: 89 794 104 319 322 70 116 787 916 60
Route #9: 487 141 802 257 559 743 911 877 970
Route #10: 74 21 928 93 967 986 540 283 712
Route #11: 142 713 223 635 694 65 278 407
Route #12: 751 790 28 618 943 656 306 799 445 626
Route #13: 893 384 607 630 501 253 704 459
Route #14: 527 697 775 461 455 721 898 753 478
Route #15: 489 411 718 264 915 517 651 762 302 117 26 844
Route #16: 726 213 932 122 586 148 547 532 687
Cost: 248960
